140648
735159
356313
260596
921240
34345
376362
252397
43482
628410
394256
190590
717747
437320
50142
483762
476199
98836
220101
3860
9411
696678
463913
97882
924855
528382
753874
101295
947867
755314
912377
329819
590866
836201
890883
528850
993164
272242
633802
411926
959589
760578
710614
683465
411435
812808
197674
196947
907197
750255
517435
344492
184014
156336
156348
922566
31049
274704
878804
660826
282127
134333
767793
566798
662491
485377
917686
880960
14599
764833
157648
883634
10407
306964
319206
483154
598291
431331
430382
819556
689475
307354
500189
135310
591827
478312
396854
358080
894501
453848
138308
124030
267685
961196
912163
437771
927272
221523
940664
847987
